c Random generated cnf formula, satisfiable: true
p cnf 10 50
-2 8 3 0
4 9 -8 0
9 4 6 0
1 -7 9 0
9 7 2 0
-9 -8 4 0
-5 -6 -8 0
-9 -4 10 0
8 -1 3 0
2 -10 -5 0
-5 3 8 0
-7 -2 9 0
6 3 -8 0
7 -2 -3 0
3 9 6 0
-8 -3 2 0
-6 -4 -7 0
-9 7 -6 0
-10 -2 9 0
9 4 7 0
-10 7 4 0
5 1 2 0
-9 8 4 0
3 10 -4 0
-6 -3 9 0
-2 -4 3 0
-1 -4 -8 0
-9 -1 3 0
-8 10 7 0
-10 6 8 0
8 -10 5 0
7 -10 -2 0
8 4 6 0
7 -4 -8 0
4 -9 1 0
4 6 -3 0
4 6 -5 0
-8 -4 -9 0
-4 8 -2 0
4 9 6 0
-8 1 -4 0
-2 -8 -3 0
1 -2 -8 0
8 6 7 0
2 3 10 0
-1 9 4 0
-3 1 8 0
9 -7 -6 0
-5 2 -9 0
-5 10 3 0
